p cnf 26 29
-1 -2 21 -22 -25 -26 0 
-3 21 -22 -25 -26 0 
-4 6 11 21 -22 -25 -26 0 
-5 15 22 -25 -26 0 
-6 4 11 23 -22 -25 -26 0 
-5 15 -3 21 -22 -25 -26 0 
-7 -1 -8 21 -22 -25 -26 0 
-5 15 21 -22 -25 -26 0 
-9 -5 15 21 -22 -25 -26 0 
-10 21 -22 -25 -26 0 
-11 4 6 21 -22 -25 -26 0 
-1 21 -22 -25 -26 0 
-12 21 -22 -25 -26 0 
-13 -12 21 -22 -25 -26 0 
-14 -4 6 11 21 -22 -25 -26 0 
-15 5 -10 21 -22 -25 -26 0 
-10 -12 21 -22 -25 -26 0 
-13 -10 21 -22 -25 -26 0 
-3 22 -25 -26 0 
-1 -3 21 -22 -25 -26 0 
-16 17 24 0 
-11 4 6 22 -25 -26 0 
-17 16 -16 17 25 -22 -26 0 
-1 23 -22 -25 -26 0 
-18 22 -25 -26 0 
-19 26 -22 -25 0 
-15 5 -12 21 -22 -25 -26 0 
-7 -10 21 -22 -25 -26 0 
-5 15 -1 -20 21 -22 -25 -26 0 
